(set-info :smt-lib-version 2.6)
(set-logic QF_NIA)
(set-info :source |
 more info in 'N. P. Lopes, L. Aksoy, V. Manquinho, J. Monteiro.
 Optimally Solving the MCM Problem Using Pseudo-Boolean Satisfiability.
 Technical Report RT/43/2010, INESC-ID, Nov. 2010'. |)
(set-info :category "industrial")
(set-info :status unknown)
(declare-fun X1 () Int)
(declare-fun X2 () Int)
(declare-fun X3 () Int)
(declare-fun X4 () Int)
(declare-fun X5 () Int)
(declare-fun X6 () Int)
(declare-fun X7 () Int)
(declare-fun X8 () Int)
(declare-fun X9 () Int)
(declare-fun X10 () Int)
(declare-fun X11 () Int)
(declare-fun S0 () Int)
(declare-fun S1 () Int)
(declare-fun S2 () Int)
(declare-fun S3 () Int)
(declare-fun S4 () Int)
(declare-fun S5 () Int)
(declare-fun S6 () Int)
(declare-fun S7 () Int)
(declare-fun S8 () Int)
(declare-fun S9 () Int)
(declare-fun S10 () Int)
(declare-fun S11 () Int)
(declare-fun S12 () Int)
(declare-fun S13 () Int)
(declare-fun S14 () Int)
(declare-fun S15 () Int)
(declare-fun S16 () Int)
(declare-fun S17 () Int)
(declare-fun S18 () Int)
(declare-fun S19 () Int)
(declare-fun S20 () Int)
(declare-fun S21 () Int)
(define-fun power2 ((x Int)) Bool
  (or (= x 2048) (= x 1024) (= x 512) (= x 256) (= x 128) (= x 64) (= x 32) (= x 16) (= x 8) (= x 4) (= x 2) (= x 1)))
(assert (or
 (= X1 (+ S0 S1))
 (= X1 (- S0 S1))
 (= X1 (+ (* 63 S0) S1))
 (= X1 (- (* 63 S0) S1))
 (= X1 (- S0 (* 63 S1)))
 (= X1 (+ (* 63 S0) (* 63 S1)))
 (= X1 (- (* 63 S0) (* 63 S1)))
))
(assert (and (> X1 0) (< X1 4096) (power2 S0) (power2 S1)))
(assert (or
 (= X2 (+ S2 S3))
 (= X2 (- S2 S3))
 (= X2 (+ (* 63 S2) S3))
 (= X2 (- (* 63 S2) S3))
 (= X2 (- S2 (* 63 S3)))
 (= X2 (+ (* 63 S2) (* 63 S3)))
 (= X2 (- (* 63 S2) (* 63 S3)))
 (= X2 (+ (* 63 S2) (* X1 S3)))
 (= X2 (- (* 63 S2) (* X1 S3)))
 (= X2 (- (* X1 S2) (* 63 S3)))
 (= X2 (+ (* X1 S2) S3))
 (= X2 (- (* X1 S2) S3))
 (= X2 (- S2 (* X1 S3)))
 (= X2 (+ (* X1 S2) (* X1 S3)))
 (= X2 (- (* X1 S2) (* X1 S3)))
))
(assert (and (> X2 0) (< X2 4096) (power2 S2) (power2 S3)))
(assert (or
 (= X3 (+ (* 63 S4) S5))
 (= X3 (- (* 63 S4) S5))
 (= X3 (- S4 (* 63 S5)))
 (= X3 (+ (* 63 S4) (* 63 S5)))
 (= X3 (- (* 63 S4) (* 63 S5)))
 (= X3 (+ (* 63 S4) (* X1 S5)))
 (= X3 (- (* 63 S4) (* X1 S5)))
 (= X3 (- (* X1 S4) (* 63 S5)))
 (= X3 (+ (* 63 S4) (* X2 S5)))
 (= X3 (- (* 63 S4) (* X2 S5)))
 (= X3 (- (* X2 S4) (* 63 S5)))
 (= X3 (+ (* X1 S4) S5))
 (= X3 (- (* X1 S4) S5))
 (= X3 (- S4 (* X1 S5)))
 (= X3 (+ (* X1 S4) (* X1 S5)))
 (= X3 (- (* X1 S4) (* X1 S5)))
 (= X3 (+ (* X1 S4) (* X2 S5)))
 (= X3 (- (* X1 S4) (* X2 S5)))
 (= X3 (- (* X2 S4) (* X1 S5)))
 (= X3 (+ (* X2 S4) S5))
 (= X3 (- (* X2 S4) S5))
 (= X3 (- S4 (* X2 S5)))
 (= X3 (+ (* X2 S4) (* X2 S5)))
 (= X3 (- (* X2 S4) (* X2 S5)))
))
(assert (and (> X3 0) (< X3 4096) (power2 S4) (power2 S5)))
(assert (or
 (= X4 (+ (* 63 S6) S7))
 (= X4 (- (* 63 S6) S7))
 (= X4 (- S6 (* 63 S7)))
 (= X4 (+ (* 63 S6) (* 63 S7)))
 (= X4 (- (* 63 S6) (* 63 S7)))
 (= X4 (+ (* 63 S6) (* X1 S7)))
 (= X4 (- (* 63 S6) (* X1 S7)))
 (= X4 (- (* X1 S6) (* 63 S7)))
 (= X4 (+ (* 63 S6) (* X2 S7)))
 (= X4 (- (* 63 S6) (* X2 S7)))
 (= X4 (- (* X2 S6) (* 63 S7)))
 (= X4 (+ (* 63 S6) (* X3 S7)))
 (= X4 (- (* 63 S6) (* X3 S7)))
 (= X4 (- (* X3 S6) (* 63 S7)))
 (= X4 (+ (* X1 S6) S7))
 (= X4 (- (* X1 S6) S7))
 (= X4 (- S6 (* X1 S7)))
 (= X4 (+ (* X1 S6) (* X1 S7)))
 (= X4 (- (* X1 S6) (* X1 S7)))
 (= X4 (+ (* X1 S6) (* X2 S7)))
 (= X4 (- (* X1 S6) (* X2 S7)))
 (= X4 (- (* X2 S6) (* X1 S7)))
 (= X4 (+ (* X1 S6) (* X3 S7)))
 (= X4 (- (* X1 S6) (* X3 S7)))
 (= X4 (- (* X3 S6) (* X1 S7)))
 (= X4 (+ (* X2 S6) S7))
 (= X4 (- (* X2 S6) S7))
 (= X4 (- S6 (* X2 S7)))
 (= X4 (+ (* X2 S6) (* X2 S7)))
 (= X4 (- (* X2 S6) (* X2 S7)))
 (= X4 (+ (* X2 S6) (* X3 S7)))
 (= X4 (- (* X2 S6) (* X3 S7)))
 (= X4 (- (* X3 S6) (* X2 S7)))
 (= X4 (+ (* X3 S6) S7))
 (= X4 (- (* X3 S6) S7))
 (= X4 (- S6 (* X3 S7)))
 (= X4 (+ (* X3 S6) (* X3 S7)))
 (= X4 (- (* X3 S6) (* X3 S7)))
))
(assert (and (> X4 0) (< X4 4096) (power2 S6) (power2 S7)))
(assert (or
 (= X5 (+ (* 63 S8) S9))
 (= X5 (- (* 63 S8) S9))
 (= X5 (- S8 (* 63 S9)))
 (= X5 (+ (* 63 S8) (* 63 S9)))
 (= X5 (- (* 63 S8) (* 63 S9)))
 (= X5 (+ (* 63 S8) (* X1 S9)))
 (= X5 (- (* 63 S8) (* X1 S9)))
 (= X5 (- (* X1 S8) (* 63 S9)))
 (= X5 (+ (* 63 S8) (* X2 S9)))
 (= X5 (- (* 63 S8) (* X2 S9)))
 (= X5 (- (* X2 S8) (* 63 S9)))
 (= X5 (+ (* 63 S8) (* X3 S9)))
 (= X5 (- (* 63 S8) (* X3 S9)))
 (= X5 (- (* X3 S8) (* 63 S9)))
 (= X5 (+ (* 63 S8) (* X4 S9)))
 (= X5 (- (* 63 S8) (* X4 S9)))
 (= X5 (- (* X4 S8) (* 63 S9)))
 (= X5 (+ (* X1 S8) S9))
 (= X5 (- (* X1 S8) S9))
 (= X5 (- S8 (* X1 S9)))
 (= X5 (+ (* X1 S8) (* X1 S9)))
 (= X5 (- (* X1 S8) (* X1 S9)))
 (= X5 (+ (* X1 S8) (* X2 S9)))
 (= X5 (- (* X1 S8) (* X2 S9)))
 (= X5 (- (* X2 S8) (* X1 S9)))
 (= X5 (+ (* X1 S8) (* X3 S9)))
 (= X5 (- (* X1 S8) (* X3 S9)))
 (= X5 (- (* X3 S8) (* X1 S9)))
 (= X5 (+ (* X1 S8) (* X4 S9)))
 (= X5 (- (* X1 S8) (* X4 S9)))
 (= X5 (- (* X4 S8) (* X1 S9)))
 (= X5 (+ (* X2 S8) S9))
 (= X5 (- (* X2 S8) S9))
 (= X5 (- S8 (* X2 S9)))
 (= X5 (+ (* X2 S8) (* X2 S9)))
 (= X5 (- (* X2 S8) (* X2 S9)))
 (= X5 (+ (* X2 S8) (* X3 S9)))
 (= X5 (- (* X2 S8) (* X3 S9)))
 (= X5 (- (* X3 S8) (* X2 S9)))
 (= X5 (+ (* X2 S8) (* X4 S9)))
 (= X5 (- (* X2 S8) (* X4 S9)))
 (= X5 (- (* X4 S8) (* X2 S9)))
 (= X5 (+ (* X3 S8) S9))
 (= X5 (- (* X3 S8) S9))
 (= X5 (- S8 (* X3 S9)))
 (= X5 (+ (* X3 S8) (* X3 S9)))
 (= X5 (- (* X3 S8) (* X3 S9)))
 (= X5 (+ (* X3 S8) (* X4 S9)))
 (= X5 (- (* X3 S8) (* X4 S9)))
 (= X5 (- (* X4 S8) (* X3 S9)))
 (= X5 (+ (* X4 S8) S9))
 (= X5 (- (* X4 S8) S9))
 (= X5 (- S8 (* X4 S9)))
 (= X5 (+ (* X4 S8) (* X4 S9)))
 (= X5 (- (* X4 S8) (* X4 S9)))
))
(assert (and (> X5 0) (< X5 4096) (power2 S8) (power2 S9)))
(assert (or
 (= X6 (+ (* 63 S10) S11))
 (= X6 (- (* 63 S10) S11))
 (= X6 (- S10 (* 63 S11)))
 (= X6 (+ (* 63 S10) (* 63 S11)))
 (= X6 (- (* 63 S10) (* 63 S11)))
 (= X6 (+ (* 63 S10) (* X1 S11)))
 (= X6 (- (* 63 S10) (* X1 S11)))
 (= X6 (- (* X1 S10) (* 63 S11)))
 (= X6 (+ (* 63 S10) (* X2 S11)))
 (= X6 (- (* 63 S10) (* X2 S11)))
 (= X6 (- (* X2 S10) (* 63 S11)))
 (= X6 (+ (* 63 S10) (* X3 S11)))
 (= X6 (- (* 63 S10) (* X3 S11)))
 (= X6 (- (* X3 S10) (* 63 S11)))
 (= X6 (+ (* 63 S10) (* X4 S11)))
 (= X6 (- (* 63 S10) (* X4 S11)))
 (= X6 (- (* X4 S10) (* 63 S11)))
 (= X6 (+ (* 63 S10) (* X5 S11)))
 (= X6 (- (* 63 S10) (* X5 S11)))
 (= X6 (- (* X5 S10) (* 63 S11)))
 (= X6 (+ (* X1 S10) S11))
 (= X6 (- (* X1 S10) S11))
 (= X6 (- S10 (* X1 S11)))
 (= X6 (+ (* X1 S10) (* X1 S11)))
 (= X6 (- (* X1 S10) (* X1 S11)))
 (= X6 (+ (* X1 S10) (* X2 S11)))
 (= X6 (- (* X1 S10) (* X2 S11)))
 (= X6 (- (* X2 S10) (* X1 S11)))
 (= X6 (+ (* X1 S10) (* X3 S11)))
 (= X6 (- (* X1 S10) (* X3 S11)))
 (= X6 (- (* X3 S10) (* X1 S11)))
 (= X6 (+ (* X1 S10) (* X4 S11)))
 (= X6 (- (* X1 S10) (* X4 S11)))
 (= X6 (- (* X4 S10) (* X1 S11)))
 (= X6 (+ (* X1 S10) (* X5 S11)))
 (= X6 (- (* X1 S10) (* X5 S11)))
 (= X6 (- (* X5 S10) (* X1 S11)))
 (= X6 (+ (* X2 S10) S11))
 (= X6 (- (* X2 S10) S11))
 (= X6 (- S10 (* X2 S11)))
 (= X6 (+ (* X2 S10) (* X2 S11)))
 (= X6 (- (* X2 S10) (* X2 S11)))
 (= X6 (+ (* X2 S10) (* X3 S11)))
 (= X6 (- (* X2 S10) (* X3 S11)))
 (= X6 (- (* X3 S10) (* X2 S11)))
 (= X6 (+ (* X2 S10) (* X4 S11)))
 (= X6 (- (* X2 S10) (* X4 S11)))
 (= X6 (- (* X4 S10) (* X2 S11)))
 (= X6 (+ (* X2 S10) (* X5 S11)))
 (= X6 (- (* X2 S10) (* X5 S11)))
 (= X6 (- (* X5 S10) (* X2 S11)))
 (= X6 (+ (* X3 S10) S11))
 (= X6 (- (* X3 S10) S11))
 (= X6 (- S10 (* X3 S11)))
 (= X6 (+ (* X3 S10) (* X3 S11)))
 (= X6 (- (* X3 S10) (* X3 S11)))
 (= X6 (+ (* X3 S10) (* X4 S11)))
 (= X6 (- (* X3 S10) (* X4 S11)))
 (= X6 (- (* X4 S10) (* X3 S11)))
 (= X6 (+ (* X3 S10) (* X5 S11)))
 (= X6 (- (* X3 S10) (* X5 S11)))
 (= X6 (- (* X5 S10) (* X3 S11)))
 (= X6 (+ (* X4 S10) S11))
 (= X6 (- (* X4 S10) S11))
 (= X6 (- S10 (* X4 S11)))
 (= X6 (+ (* X4 S10) (* X4 S11)))
 (= X6 (- (* X4 S10) (* X4 S11)))
 (= X6 (+ (* X4 S10) (* X5 S11)))
 (= X6 (- (* X4 S10) (* X5 S11)))
 (= X6 (- (* X5 S10) (* X4 S11)))
 (= X6 (+ (* X5 S10) S11))
 (= X6 (- (* X5 S10) S11))
 (= X6 (- S10 (* X5 S11)))
 (= X6 (+ (* X5 S10) (* X5 S11)))
 (= X6 (- (* X5 S10) (* X5 S11)))
))
(assert (and (> X6 0) (< X6 4096) (power2 S10) (power2 S11)))
(assert (or
 (= X7 (+ (* 63 S12) S13))
 (= X7 (- (* 63 S12) S13))
 (= X7 (- S12 (* 63 S13)))
 (= X7 (+ (* 63 S12) (* 63 S13)))
 (= X7 (- (* 63 S12) (* 63 S13)))
 (= X7 (+ (* 63 S12) (* X1 S13)))
 (= X7 (- (* 63 S12) (* X1 S13)))
 (= X7 (- (* X1 S12) (* 63 S13)))
 (= X7 (+ (* 63 S12) (* X2 S13)))
 (= X7 (- (* 63 S12) (* X2 S13)))
 (= X7 (- (* X2 S12) (* 63 S13)))
 (= X7 (+ (* 63 S12) (* X3 S13)))
 (= X7 (- (* 63 S12) (* X3 S13)))
 (= X7 (- (* X3 S12) (* 63 S13)))
 (= X7 (+ (* 63 S12) (* X4 S13)))
 (= X7 (- (* 63 S12) (* X4 S13)))
 (= X7 (- (* X4 S12) (* 63 S13)))
 (= X7 (+ (* 63 S12) (* X5 S13)))
 (= X7 (- (* 63 S12) (* X5 S13)))
 (= X7 (- (* X5 S12) (* 63 S13)))
 (= X7 (+ (* 63 S12) (* X6 S13)))
 (= X7 (- (* 63 S12) (* X6 S13)))
 (= X7 (- (* X6 S12) (* 63 S13)))
 (= X7 (+ (* X1 S12) S13))
 (= X7 (- (* X1 S12) S13))
 (= X7 (- S12 (* X1 S13)))
 (= X7 (+ (* X1 S12) (* X1 S13)))
 (= X7 (- (* X1 S12) (* X1 S13)))
 (= X7 (+ (* X1 S12) (* X2 S13)))
 (= X7 (- (* X1 S12) (* X2 S13)))
 (= X7 (- (* X2 S12) (* X1 S13)))
 (= X7 (+ (* X1 S12) (* X3 S13)))
 (= X7 (- (* X1 S12) (* X3 S13)))
 (= X7 (- (* X3 S12) (* X1 S13)))
 (= X7 (+ (* X1 S12) (* X4 S13)))
 (= X7 (- (* X1 S12) (* X4 S13)))
 (= X7 (- (* X4 S12) (* X1 S13)))
 (= X7 (+ (* X1 S12) (* X5 S13)))
 (= X7 (- (* X1 S12) (* X5 S13)))
 (= X7 (- (* X5 S12) (* X1 S13)))
 (= X7 (+ (* X1 S12) (* X6 S13)))
 (= X7 (- (* X1 S12) (* X6 S13)))
 (= X7 (- (* X6 S12) (* X1 S13)))
 (= X7 (+ (* X2 S12) S13))
 (= X7 (- (* X2 S12) S13))
 (= X7 (- S12 (* X2 S13)))
 (= X7 (+ (* X2 S12) (* X2 S13)))
 (= X7 (- (* X2 S12) (* X2 S13)))
 (= X7 (+ (* X2 S12) (* X3 S13)))
 (= X7 (- (* X2 S12) (* X3 S13)))
 (= X7 (- (* X3 S12) (* X2 S13)))
 (= X7 (+ (* X2 S12) (* X4 S13)))
 (= X7 (- (* X2 S12) (* X4 S13)))
 (= X7 (- (* X4 S12) (* X2 S13)))
 (= X7 (+ (* X2 S12) (* X5 S13)))
 (= X7 (- (* X2 S12) (* X5 S13)))
 (= X7 (- (* X5 S12) (* X2 S13)))
 (= X7 (+ (* X2 S12) (* X6 S13)))
 (= X7 (- (* X2 S12) (* X6 S13)))
 (= X7 (- (* X6 S12) (* X2 S13)))
 (= X7 (+ (* X3 S12) S13))
 (= X7 (- (* X3 S12) S13))
 (= X7 (- S12 (* X3 S13)))
 (= X7 (+ (* X3 S12) (* X3 S13)))
 (= X7 (- (* X3 S12) (* X3 S13)))
 (= X7 (+ (* X3 S12) (* X4 S13)))
 (= X7 (- (* X3 S12) (* X4 S13)))
 (= X7 (- (* X4 S12) (* X3 S13)))
 (= X7 (+ (* X3 S12) (* X5 S13)))
 (= X7 (- (* X3 S12) (* X5 S13)))
 (= X7 (- (* X5 S12) (* X3 S13)))
 (= X7 (+ (* X3 S12) (* X6 S13)))
 (= X7 (- (* X3 S12) (* X6 S13)))
 (= X7 (- (* X6 S12) (* X3 S13)))
 (= X7 (+ (* X4 S12) S13))
 (= X7 (- (* X4 S12) S13))
 (= X7 (- S12 (* X4 S13)))
 (= X7 (+ (* X4 S12) (* X4 S13)))
 (= X7 (- (* X4 S12) (* X4 S13)))
 (= X7 (+ (* X4 S12) (* X5 S13)))
 (= X7 (- (* X4 S12) (* X5 S13)))
 (= X7 (- (* X5 S12) (* X4 S13)))
 (= X7 (+ (* X4 S12) (* X6 S13)))
 (= X7 (- (* X4 S12) (* X6 S13)))
 (= X7 (- (* X6 S12) (* X4 S13)))
 (= X7 (+ (* X5 S12) S13))
 (= X7 (- (* X5 S12) S13))
 (= X7 (- S12 (* X5 S13)))
 (= X7 (+ (* X5 S12) (* X5 S13)))
 (= X7 (- (* X5 S12) (* X5 S13)))
 (= X7 (+ (* X5 S12) (* X6 S13)))
 (= X7 (- (* X5 S12) (* X6 S13)))
 (= X7 (- (* X6 S12) (* X5 S13)))
 (= X7 (+ (* X6 S12) S13))
 (= X7 (- (* X6 S12) S13))
 (= X7 (- S12 (* X6 S13)))
 (= X7 (+ (* X6 S12) (* X6 S13)))
 (= X7 (- (* X6 S12) (* X6 S13)))
))
(assert (and (> X7 0) (< X7 4096) (power2 S12) (power2 S13)))
(assert (or
 (= X8 (+ (* 63 S14) S15))
 (= X8 (- (* 63 S14) S15))
 (= X8 (- S14 (* 63 S15)))
 (= X8 (+ (* 63 S14) (* 63 S15)))
 (= X8 (- (* 63 S14) (* 63 S15)))
 (= X8 (+ (* 63 S14) (* X1 S15)))
 (= X8 (- (* 63 S14) (* X1 S15)))
 (= X8 (- (* X1 S14) (* 63 S15)))
 (= X8 (+ (* 63 S14) (* X2 S15)))
 (= X8 (- (* 63 S14) (* X2 S15)))
 (= X8 (- (* X2 S14) (* 63 S15)))
 (= X8 (+ (* 63 S14) (* X3 S15)))
 (= X8 (- (* 63 S14) (* X3 S15)))
 (= X8 (- (* X3 S14) (* 63 S15)))
 (= X8 (+ (* 63 S14) (* X4 S15)))
 (= X8 (- (* 63 S14) (* X4 S15)))
 (= X8 (- (* X4 S14) (* 63 S15)))
 (= X8 (+ (* 63 S14) (* X5 S15)))
 (= X8 (- (* 63 S14) (* X5 S15)))
 (= X8 (- (* X5 S14) (* 63 S15)))
 (= X8 (+ (* 63 S14) (* X6 S15)))
 (= X8 (- (* 63 S14) (* X6 S15)))
 (= X8 (- (* X6 S14) (* 63 S15)))
 (= X8 (+ (* 63 S14) (* X7 S15)))
 (= X8 (- (* 63 S14) (* X7 S15)))
 (= X8 (- (* X7 S14) (* 63 S15)))
 (= X8 (+ (* X1 S14) S15))
 (= X8 (- (* X1 S14) S15))
 (= X8 (- S14 (* X1 S15)))
 (= X8 (+ (* X1 S14) (* X1 S15)))
 (= X8 (- (* X1 S14) (* X1 S15)))
 (= X8 (+ (* X1 S14) (* X2 S15)))
 (= X8 (- (* X1 S14) (* X2 S15)))
 (= X8 (- (* X2 S14) (* X1 S15)))
 (= X8 (+ (* X1 S14) (* X3 S15)))
 (= X8 (- (* X1 S14) (* X3 S15)))
 (= X8 (- (* X3 S14) (* X1 S15)))
 (= X8 (+ (* X1 S14) (* X4 S15)))
 (= X8 (- (* X1 S14) (* X4 S15)))
 (= X8 (- (* X4 S14) (* X1 S15)))
 (= X8 (+ (* X1 S14) (* X5 S15)))
 (= X8 (- (* X1 S14) (* X5 S15)))
 (= X8 (- (* X5 S14) (* X1 S15)))
 (= X8 (+ (* X1 S14) (* X6 S15)))
 (= X8 (- (* X1 S14) (* X6 S15)))
 (= X8 (- (* X6 S14) (* X1 S15)))
 (= X8 (+ (* X1 S14) (* X7 S15)))
 (= X8 (- (* X1 S14) (* X7 S15)))
 (= X8 (- (* X7 S14) (* X1 S15)))
 (= X8 (+ (* X2 S14) S15))
 (= X8 (- (* X2 S14) S15))
 (= X8 (- S14 (* X2 S15)))
 (= X8 (+ (* X2 S14) (* X2 S15)))
 (= X8 (- (* X2 S14) (* X2 S15)))
 (= X8 (+ (* X2 S14) (* X3 S15)))
 (= X8 (- (* X2 S14) (* X3 S15)))
 (= X8 (- (* X3 S14) (* X2 S15)))
 (= X8 (+ (* X2 S14) (* X4 S15)))
 (= X8 (- (* X2 S14) (* X4 S15)))
 (= X8 (- (* X4 S14) (* X2 S15)))
 (= X8 (+ (* X2 S14) (* X5 S15)))
 (= X8 (- (* X2 S14) (* X5 S15)))
 (= X8 (- (* X5 S14) (* X2 S15)))
 (= X8 (+ (* X2 S14) (* X6 S15)))
 (= X8 (- (* X2 S14) (* X6 S15)))
 (= X8 (- (* X6 S14) (* X2 S15)))
 (= X8 (+ (* X2 S14) (* X7 S15)))
 (= X8 (- (* X2 S14) (* X7 S15)))
 (= X8 (- (* X7 S14) (* X2 S15)))
 (= X8 (+ (* X3 S14) S15))
 (= X8 (- (* X3 S14) S15))
 (= X8 (- S14 (* X3 S15)))
 (= X8 (+ (* X3 S14) (* X3 S15)))
 (= X8 (- (* X3 S14) (* X3 S15)))
 (= X8 (+ (* X3 S14) (* X4 S15)))
 (= X8 (- (* X3 S14) (* X4 S15)))
 (= X8 (- (* X4 S14) (* X3 S15)))
 (= X8 (+ (* X3 S14) (* X5 S15)))
 (= X8 (- (* X3 S14) (* X5 S15)))
 (= X8 (- (* X5 S14) (* X3 S15)))
 (= X8 (+ (* X3 S14) (* X6 S15)))
 (= X8 (- (* X3 S14) (* X6 S15)))
 (= X8 (- (* X6 S14) (* X3 S15)))
 (= X8 (+ (* X3 S14) (* X7 S15)))
 (= X8 (- (* X3 S14) (* X7 S15)))
 (= X8 (- (* X7 S14) (* X3 S15)))
 (= X8 (+ (* X4 S14) S15))
 (= X8 (- (* X4 S14) S15))
 (= X8 (- S14 (* X4 S15)))
 (= X8 (+ (* X4 S14) (* X4 S15)))
 (= X8 (- (* X4 S14) (* X4 S15)))
 (= X8 (+ (* X4 S14) (* X5 S15)))
 (= X8 (- (* X4 S14) (* X5 S15)))
 (= X8 (- (* X5 S14) (* X4 S15)))
 (= X8 (+ (* X4 S14) (* X6 S15)))
 (= X8 (- (* X4 S14) (* X6 S15)))
 (= X8 (- (* X6 S14) (* X4 S15)))
 (= X8 (+ (* X4 S14) (* X7 S15)))
 (= X8 (- (* X4 S14) (* X7 S15)))
 (= X8 (- (* X7 S14) (* X4 S15)))
 (= X8 (+ (* X5 S14) S15))
 (= X8 (- (* X5 S14) S15))
 (= X8 (- S14 (* X5 S15)))
 (= X8 (+ (* X5 S14) (* X5 S15)))
 (= X8 (- (* X5 S14) (* X5 S15)))
 (= X8 (+ (* X5 S14) (* X6 S15)))
 (= X8 (- (* X5 S14) (* X6 S15)))
 (= X8 (- (* X6 S14) (* X5 S15)))
 (= X8 (+ (* X5 S14) (* X7 S15)))
 (= X8 (- (* X5 S14) (* X7 S15)))
 (= X8 (- (* X7 S14) (* X5 S15)))
 (= X8 (+ (* X6 S14) S15))
 (= X8 (- (* X6 S14) S15))
 (= X8 (- S14 (* X6 S15)))
 (= X8 (+ (* X6 S14) (* X6 S15)))
 (= X8 (- (* X6 S14) (* X6 S15)))
 (= X8 (+ (* X6 S14) (* X7 S15)))
 (= X8 (- (* X6 S14) (* X7 S15)))
 (= X8 (- (* X7 S14) (* X6 S15)))
 (= X8 (+ (* X7 S14) S15))
 (= X8 (- (* X7 S14) S15))
 (= X8 (- S14 (* X7 S15)))
 (= X8 (+ (* X7 S14) (* X7 S15)))
 (= X8 (- (* X7 S14) (* X7 S15)))
))
(assert (and (> X8 0) (< X8 4096) (power2 S14) (power2 S15)))
(assert (or
 (= X9 (+ (* 63 S16) S17))
 (= X9 (- (* 63 S16) S17))
 (= X9 (- S16 (* 63 S17)))
 (= X9 (+ (* 63 S16) (* 63 S17)))
 (= X9 (- (* 63 S16) (* 63 S17)))
 (= X9 (+ (* 63 S16) (* X1 S17)))
 (= X9 (- (* 63 S16) (* X1 S17)))
 (= X9 (- (* X1 S16) (* 63 S17)))
 (= X9 (+ (* 63 S16) (* X2 S17)))
 (= X9 (- (* 63 S16) (* X2 S17)))
 (= X9 (- (* X2 S16) (* 63 S17)))
 (= X9 (+ (* 63 S16) (* X3 S17)))
 (= X9 (- (* 63 S16) (* X3 S17)))
 (= X9 (- (* X3 S16) (* 63 S17)))
 (= X9 (+ (* 63 S16) (* X4 S17)))
 (= X9 (- (* 63 S16) (* X4 S17)))
 (= X9 (- (* X4 S16) (* 63 S17)))
 (= X9 (+ (* 63 S16) (* X5 S17)))
 (= X9 (- (* 63 S16) (* X5 S17)))
 (= X9 (- (* X5 S16) (* 63 S17)))
 (= X9 (+ (* 63 S16) (* X6 S17)))
 (= X9 (- (* 63 S16) (* X6 S17)))
 (= X9 (- (* X6 S16) (* 63 S17)))
 (= X9 (+ (* 63 S16) (* X7 S17)))
 (= X9 (- (* 63 S16) (* X7 S17)))
 (= X9 (- (* X7 S16) (* 63 S17)))
 (= X9 (+ (* 63 S16) (* X8 S17)))
 (= X9 (- (* 63 S16) (* X8 S17)))
 (= X9 (- (* X8 S16) (* 63 S17)))
 (= X9 (+ (* X1 S16) S17))
 (= X9 (- (* X1 S16) S17))
 (= X9 (- S16 (* X1 S17)))
 (= X9 (+ (* X1 S16) (* X1 S17)))
 (= X9 (- (* X1 S16) (* X1 S17)))
 (= X9 (+ (* X1 S16) (* X2 S17)))
 (= X9 (- (* X1 S16) (* X2 S17)))
 (= X9 (- (* X2 S16) (* X1 S17)))
 (= X9 (+ (* X1 S16) (* X3 S17)))
 (= X9 (- (* X1 S16) (* X3 S17)))
 (= X9 (- (* X3 S16) (* X1 S17)))
 (= X9 (+ (* X1 S16) (* X4 S17)))
 (= X9 (- (* X1 S16) (* X4 S17)))
 (= X9 (- (* X4 S16) (* X1 S17)))
 (= X9 (+ (* X1 S16) (* X5 S17)))
 (= X9 (- (* X1 S16) (* X5 S17)))
 (= X9 (- (* X5 S16) (* X1 S17)))
 (= X9 (+ (* X1 S16) (* X6 S17)))
 (= X9 (- (* X1 S16) (* X6 S17)))
 (= X9 (- (* X6 S16) (* X1 S17)))
 (= X9 (+ (* X1 S16) (* X7 S17)))
 (= X9 (- (* X1 S16) (* X7 S17)))
 (= X9 (- (* X7 S16) (* X1 S17)))
 (= X9 (+ (* X1 S16) (* X8 S17)))
 (= X9 (- (* X1 S16) (* X8 S17)))
 (= X9 (- (* X8 S16) (* X1 S17)))
 (= X9 (+ (* X2 S16) S17))
 (= X9 (- (* X2 S16) S17))
 (= X9 (- S16 (* X2 S17)))
 (= X9 (+ (* X2 S16) (* X2 S17)))
 (= X9 (- (* X2 S16) (* X2 S17)))
 (= X9 (+ (* X2 S16) (* X3 S17)))
 (= X9 (- (* X2 S16) (* X3 S17)))
 (= X9 (- (* X3 S16) (* X2 S17)))
 (= X9 (+ (* X2 S16) (* X4 S17)))
 (= X9 (- (* X2 S16) (* X4 S17)))
 (= X9 (- (* X4 S16) (* X2 S17)))
 (= X9 (+ (* X2 S16) (* X5 S17)))
 (= X9 (- (* X2 S16) (* X5 S17)))
 (= X9 (- (* X5 S16) (* X2 S17)))
 (= X9 (+ (* X2 S16) (* X6 S17)))
 (= X9 (- (* X2 S16) (* X6 S17)))
 (= X9 (- (* X6 S16) (* X2 S17)))
 (= X9 (+ (* X2 S16) (* X7 S17)))
 (= X9 (- (* X2 S16) (* X7 S17)))
 (= X9 (- (* X7 S16) (* X2 S17)))
 (= X9 (+ (* X2 S16) (* X8 S17)))
 (= X9 (- (* X2 S16) (* X8 S17)))
 (= X9 (- (* X8 S16) (* X2 S17)))
 (= X9 (+ (* X3 S16) S17))
 (= X9 (- (* X3 S16) S17))
 (= X9 (- S16 (* X3 S17)))
 (= X9 (+ (* X3 S16) (* X3 S17)))
 (= X9 (- (* X3 S16) (* X3 S17)))
 (= X9 (+ (* X3 S16) (* X4 S17)))
 (= X9 (- (* X3 S16) (* X4 S17)))
 (= X9 (- (* X4 S16) (* X3 S17)))
 (= X9 (+ (* X3 S16) (* X5 S17)))
 (= X9 (- (* X3 S16) (* X5 S17)))
 (= X9 (- (* X5 S16) (* X3 S17)))
 (= X9 (+ (* X3 S16) (* X6 S17)))
 (= X9 (- (* X3 S16) (* X6 S17)))
 (= X9 (- (* X6 S16) (* X3 S17)))
 (= X9 (+ (* X3 S16) (* X7 S17)))
 (= X9 (- (* X3 S16) (* X7 S17)))
 (= X9 (- (* X7 S16) (* X3 S17)))
 (= X9 (+ (* X3 S16) (* X8 S17)))
 (= X9 (- (* X3 S16) (* X8 S17)))
 (= X9 (- (* X8 S16) (* X3 S17)))
 (= X9 (+ (* X4 S16) S17))
 (= X9 (- (* X4 S16) S17))
 (= X9 (- S16 (* X4 S17)))
 (= X9 (+ (* X4 S16) (* X4 S17)))
 (= X9 (- (* X4 S16) (* X4 S17)))
 (= X9 (+ (* X4 S16) (* X5 S17)))
 (= X9 (- (* X4 S16) (* X5 S17)))
 (= X9 (- (* X5 S16) (* X4 S17)))
 (= X9 (+ (* X4 S16) (* X6 S17)))
 (= X9 (- (* X4 S16) (* X6 S17)))
 (= X9 (- (* X6 S16) (* X4 S17)))
 (= X9 (+ (* X4 S16) (* X7 S17)))
 (= X9 (- (* X4 S16) (* X7 S17)))
 (= X9 (- (* X7 S16) (* X4 S17)))
 (= X9 (+ (* X4 S16) (* X8 S17)))
 (= X9 (- (* X4 S16) (* X8 S17)))
 (= X9 (- (* X8 S16) (* X4 S17)))
 (= X9 (+ (* X5 S16) S17))
 (= X9 (- (* X5 S16) S17))
 (= X9 (- S16 (* X5 S17)))
 (= X9 (+ (* X5 S16) (* X5 S17)))
 (= X9 (- (* X5 S16) (* X5 S17)))
 (= X9 (+ (* X5 S16) (* X6 S17)))
 (= X9 (- (* X5 S16) (* X6 S17)))
 (= X9 (- (* X6 S16) (* X5 S17)))
 (= X9 (+ (* X5 S16) (* X7 S17)))
 (= X9 (- (* X5 S16) (* X7 S17)))
 (= X9 (- (* X7 S16) (* X5 S17)))
 (= X9 (+ (* X5 S16) (* X8 S17)))
 (= X9 (- (* X5 S16) (* X8 S17)))
 (= X9 (- (* X8 S16) (* X5 S17)))
 (= X9 (+ (* X6 S16) S17))
 (= X9 (- (* X6 S16) S17))
 (= X9 (- S16 (* X6 S17)))
 (= X9 (+ (* X6 S16) (* X6 S17)))
 (= X9 (- (* X6 S16) (* X6 S17)))
 (= X9 (+ (* X6 S16) (* X7 S17)))
 (= X9 (- (* X6 S16) (* X7 S17)))
 (= X9 (- (* X7 S16) (* X6 S17)))
 (= X9 (+ (* X6 S16) (* X8 S17)))
 (= X9 (- (* X6 S16) (* X8 S17)))
 (= X9 (- (* X8 S16) (* X6 S17)))
 (= X9 (+ (* X7 S16) S17))
 (= X9 (- (* X7 S16) S17))
 (= X9 (- S16 (* X7 S17)))
 (= X9 (+ (* X7 S16) (* X7 S17)))
 (= X9 (- (* X7 S16) (* X7 S17)))
 (= X9 (+ (* X7 S16) (* X8 S17)))
 (= X9 (- (* X7 S16) (* X8 S17)))
 (= X9 (- (* X8 S16) (* X7 S17)))
 (= X9 (+ (* X8 S16) S17))
 (= X9 (- (* X8 S16) S17))
 (= X9 (- S16 (* X8 S17)))
 (= X9 (+ (* X8 S16) (* X8 S17)))
 (= X9 (- (* X8 S16) (* X8 S17)))
))
(assert (and (> X9 0) (< X9 4096) (power2 S16) (power2 S17)))
(assert (or
 (= X10 (+ (* 63 S18) S19))
 (= X10 (- (* 63 S18) S19))
 (= X10 (- S18 (* 63 S19)))
 (= X10 (+ (* 63 S18) (* 63 S19)))
 (= X10 (- (* 63 S18) (* 63 S19)))
 (= X10 (+ (* 63 S18) (* X1 S19)))
 (= X10 (- (* 63 S18) (* X1 S19)))
 (= X10 (- (* X1 S18) (* 63 S19)))
 (= X10 (+ (* 63 S18) (* X2 S19)))
 (= X10 (- (* 63 S18) (* X2 S19)))
 (= X10 (- (* X2 S18) (* 63 S19)))
 (= X10 (+ (* 63 S18) (* X3 S19)))
 (= X10 (- (* 63 S18) (* X3 S19)))
 (= X10 (- (* X3 S18) (* 63 S19)))
 (= X10 (+ (* 63 S18) (* X4 S19)))
 (= X10 (- (* 63 S18) (* X4 S19)))
 (= X10 (- (* X4 S18) (* 63 S19)))
 (= X10 (+ (* 63 S18) (* X5 S19)))
 (= X10 (- (* 63 S18) (* X5 S19)))
 (= X10 (- (* X5 S18) (* 63 S19)))
 (= X10 (+ (* 63 S18) (* X6 S19)))
 (= X10 (- (* 63 S18) (* X6 S19)))
 (= X10 (- (* X6 S18) (* 63 S19)))
 (= X10 (+ (* 63 S18) (* X7 S19)))
 (= X10 (- (* 63 S18) (* X7 S19)))
 (= X10 (- (* X7 S18) (* 63 S19)))
 (= X10 (+ (* 63 S18) (* X8 S19)))
 (= X10 (- (* 63 S18) (* X8 S19)))
 (= X10 (- (* X8 S18) (* 63 S19)))
 (= X10 (+ (* 63 S18) (* X9 S19)))
 (= X10 (- (* 63 S18) (* X9 S19)))
 (= X10 (- (* X9 S18) (* 63 S19)))
 (= X10 (+ (* X1 S18) S19))
 (= X10 (- (* X1 S18) S19))
 (= X10 (- S18 (* X1 S19)))
 (= X10 (+ (* X1 S18) (* X1 S19)))
 (= X10 (- (* X1 S18) (* X1 S19)))
 (= X10 (+ (* X1 S18) (* X2 S19)))
 (= X10 (- (* X1 S18) (* X2 S19)))
 (= X10 (- (* X2 S18) (* X1 S19)))
 (= X10 (+ (* X1 S18) (* X3 S19)))
 (= X10 (- (* X1 S18) (* X3 S19)))
 (= X10 (- (* X3 S18) (* X1 S19)))
 (= X10 (+ (* X1 S18) (* X4 S19)))
 (= X10 (- (* X1 S18) (* X4 S19)))
 (= X10 (- (* X4 S18) (* X1 S19)))
 (= X10 (+ (* X1 S18) (* X5 S19)))
 (= X10 (- (* X1 S18) (* X5 S19)))
 (= X10 (- (* X5 S18) (* X1 S19)))
 (= X10 (+ (* X1 S18) (* X6 S19)))
 (= X10 (- (* X1 S18) (* X6 S19)))
 (= X10 (- (* X6 S18) (* X1 S19)))
 (= X10 (+ (* X1 S18) (* X7 S19)))
 (= X10 (- (* X1 S18) (* X7 S19)))
 (= X10 (- (* X7 S18) (* X1 S19)))
 (= X10 (+ (* X1 S18) (* X8 S19)))
 (= X10 (- (* X1 S18) (* X8 S19)))
 (= X10 (- (* X8 S18) (* X1 S19)))
 (= X10 (+ (* X1 S18) (* X9 S19)))
 (= X10 (- (* X1 S18) (* X9 S19)))
 (= X10 (- (* X9 S18) (* X1 S19)))
 (= X10 (+ (* X2 S18) S19))
 (= X10 (- (* X2 S18) S19))
 (= X10 (- S18 (* X2 S19)))
 (= X10 (+ (* X2 S18) (* X2 S19)))
 (= X10 (- (* X2 S18) (* X2 S19)))
 (= X10 (+ (* X2 S18) (* X3 S19)))
 (= X10 (- (* X2 S18) (* X3 S19)))
 (= X10 (- (* X3 S18) (* X2 S19)))
 (= X10 (+ (* X2 S18) (* X4 S19)))
 (= X10 (- (* X2 S18) (* X4 S19)))
 (= X10 (- (* X4 S18) (* X2 S19)))
 (= X10 (+ (* X2 S18) (* X5 S19)))
 (= X10 (- (* X2 S18) (* X5 S19)))
 (= X10 (- (* X5 S18) (* X2 S19)))
 (= X10 (+ (* X2 S18) (* X6 S19)))
 (= X10 (- (* X2 S18) (* X6 S19)))
 (= X10 (- (* X6 S18) (* X2 S19)))
 (= X10 (+ (* X2 S18) (* X7 S19)))
 (= X10 (- (* X2 S18) (* X7 S19)))
 (= X10 (- (* X7 S18) (* X2 S19)))
 (= X10 (+ (* X2 S18) (* X8 S19)))
 (= X10 (- (* X2 S18) (* X8 S19)))
 (= X10 (- (* X8 S18) (* X2 S19)))
 (= X10 (+ (* X2 S18) (* X9 S19)))
 (= X10 (- (* X2 S18) (* X9 S19)))
 (= X10 (- (* X9 S18) (* X2 S19)))
 (= X10 (+ (* X3 S18) S19))
 (= X10 (- (* X3 S18) S19))
 (= X10 (- S18 (* X3 S19)))
 (= X10 (+ (* X3 S18) (* X3 S19)))
 (= X10 (- (* X3 S18) (* X3 S19)))
 (= X10 (+ (* X3 S18) (* X4 S19)))
 (= X10 (- (* X3 S18) (* X4 S19)))
 (= X10 (- (* X4 S18) (* X3 S19)))
 (= X10 (+ (* X3 S18) (* X5 S19)))
 (= X10 (- (* X3 S18) (* X5 S19)))
 (= X10 (- (* X5 S18) (* X3 S19)))
 (= X10 (+ (* X3 S18) (* X6 S19)))
 (= X10 (- (* X3 S18) (* X6 S19)))
 (= X10 (- (* X6 S18) (* X3 S19)))
 (= X10 (+ (* X3 S18) (* X7 S19)))
 (= X10 (- (* X3 S18) (* X7 S19)))
 (= X10 (- (* X7 S18) (* X3 S19)))
 (= X10 (+ (* X3 S18) (* X8 S19)))
 (= X10 (- (* X3 S18) (* X8 S19)))
 (= X10 (- (* X8 S18) (* X3 S19)))
 (= X10 (+ (* X3 S18) (* X9 S19)))
 (= X10 (- (* X3 S18) (* X9 S19)))
 (= X10 (- (* X9 S18) (* X3 S19)))
 (= X10 (+ (* X4 S18) S19))
 (= X10 (- (* X4 S18) S19))
 (= X10 (- S18 (* X4 S19)))
 (= X10 (+ (* X4 S18) (* X4 S19)))
 (= X10 (- (* X4 S18) (* X4 S19)))
 (= X10 (+ (* X4 S18) (* X5 S19)))
 (= X10 (- (* X4 S18) (* X5 S19)))
 (= X10 (- (* X5 S18) (* X4 S19)))
 (= X10 (+ (* X4 S18) (* X6 S19)))
 (= X10 (- (* X4 S18) (* X6 S19)))
 (= X10 (- (* X6 S18) (* X4 S19)))
 (= X10 (+ (* X4 S18) (* X7 S19)))
 (= X10 (- (* X4 S18) (* X7 S19)))
 (= X10 (- (* X7 S18) (* X4 S19)))
 (= X10 (+ (* X4 S18) (* X8 S19)))
 (= X10 (- (* X4 S18) (* X8 S19)))
 (= X10 (- (* X8 S18) (* X4 S19)))
 (= X10 (+ (* X4 S18) (* X9 S19)))
 (= X10 (- (* X4 S18) (* X9 S19)))
 (= X10 (- (* X9 S18) (* X4 S19)))
 (= X10 (+ (* X5 S18) S19))
 (= X10 (- (* X5 S18) S19))
 (= X10 (- S18 (* X5 S19)))
 (= X10 (+ (* X5 S18) (* X5 S19)))
 (= X10 (- (* X5 S18) (* X5 S19)))
 (= X10 (+ (* X5 S18) (* X6 S19)))
 (= X10 (- (* X5 S18) (* X6 S19)))
 (= X10 (- (* X6 S18) (* X5 S19)))
 (= X10 (+ (* X5 S18) (* X7 S19)))
 (= X10 (- (* X5 S18) (* X7 S19)))
 (= X10 (- (* X7 S18) (* X5 S19)))
 (= X10 (+ (* X5 S18) (* X8 S19)))
 (= X10 (- (* X5 S18) (* X8 S19)))
 (= X10 (- (* X8 S18) (* X5 S19)))
 (= X10 (+ (* X5 S18) (* X9 S19)))
 (= X10 (- (* X5 S18) (* X9 S19)))
 (= X10 (- (* X9 S18) (* X5 S19)))
 (= X10 (+ (* X6 S18) S19))
 (= X10 (- (* X6 S18) S19))
 (= X10 (- S18 (* X6 S19)))
 (= X10 (+ (* X6 S18) (* X6 S19)))
 (= X10 (- (* X6 S18) (* X6 S19)))
 (= X10 (+ (* X6 S18) (* X7 S19)))
 (= X10 (- (* X6 S18) (* X7 S19)))
 (= X10 (- (* X7 S18) (* X6 S19)))
 (= X10 (+ (* X6 S18) (* X8 S19)))
 (= X10 (- (* X6 S18) (* X8 S19)))
 (= X10 (- (* X8 S18) (* X6 S19)))
 (= X10 (+ (* X6 S18) (* X9 S19)))
 (= X10 (- (* X6 S18) (* X9 S19)))
 (= X10 (- (* X9 S18) (* X6 S19)))
 (= X10 (+ (* X7 S18) S19))
 (= X10 (- (* X7 S18) S19))
 (= X10 (- S18 (* X7 S19)))
 (= X10 (+ (* X7 S18) (* X7 S19)))
 (= X10 (- (* X7 S18) (* X7 S19)))
 (= X10 (+ (* X7 S18) (* X8 S19)))
 (= X10 (- (* X7 S18) (* X8 S19)))
 (= X10 (- (* X8 S18) (* X7 S19)))
 (= X10 (+ (* X7 S18) (* X9 S19)))
 (= X10 (- (* X7 S18) (* X9 S19)))
 (= X10 (- (* X9 S18) (* X7 S19)))
 (= X10 (+ (* X8 S18) S19))
 (= X10 (- (* X8 S18) S19))
 (= X10 (- S18 (* X8 S19)))
 (= X10 (+ (* X8 S18) (* X8 S19)))
 (= X10 (- (* X8 S18) (* X8 S19)))
 (= X10 (+ (* X8 S18) (* X9 S19)))
 (= X10 (- (* X8 S18) (* X9 S19)))
 (= X10 (- (* X9 S18) (* X8 S19)))
 (= X10 (+ (* X9 S18) S19))
 (= X10 (- (* X9 S18) S19))
 (= X10 (- S18 (* X9 S19)))
 (= X10 (+ (* X9 S18) (* X9 S19)))
 (= X10 (- (* X9 S18) (* X9 S19)))
))
(assert (and (> X10 0) (< X10 4096) (power2 S18) (power2 S19)))
(assert (or
 (= X11 (+ (* 63 S20) S21))
 (= X11 (- (* 63 S20) S21))
 (= X11 (- S20 (* 63 S21)))
 (= X11 (+ (* 63 S20) (* 63 S21)))
 (= X11 (- (* 63 S20) (* 63 S21)))
 (= X11 (+ (* 63 S20) (* X1 S21)))
 (= X11 (- (* 63 S20) (* X1 S21)))
 (= X11 (- (* X1 S20) (* 63 S21)))
 (= X11 (+ (* 63 S20) (* X2 S21)))
 (= X11 (- (* 63 S20) (* X2 S21)))
 (= X11 (- (* X2 S20) (* 63 S21)))
 (= X11 (+ (* 63 S20) (* X3 S21)))
 (= X11 (- (* 63 S20) (* X3 S21)))
 (= X11 (- (* X3 S20) (* 63 S21)))
 (= X11 (+ (* 63 S20) (* X4 S21)))
 (= X11 (- (* 63 S20) (* X4 S21)))
 (= X11 (- (* X4 S20) (* 63 S21)))
 (= X11 (+ (* 63 S20) (* X5 S21)))
 (= X11 (- (* 63 S20) (* X5 S21)))
 (= X11 (- (* X5 S20) (* 63 S21)))
 (= X11 (+ (* 63 S20) (* X6 S21)))
 (= X11 (- (* 63 S20) (* X6 S21)))
 (= X11 (- (* X6 S20) (* 63 S21)))
 (= X11 (+ (* 63 S20) (* X7 S21)))
 (= X11 (- (* 63 S20) (* X7 S21)))
 (= X11 (- (* X7 S20) (* 63 S21)))
 (= X11 (+ (* 63 S20) (* X8 S21)))
 (= X11 (- (* 63 S20) (* X8 S21)))
 (= X11 (- (* X8 S20) (* 63 S21)))
 (= X11 (+ (* 63 S20) (* X9 S21)))
 (= X11 (- (* 63 S20) (* X9 S21)))
 (= X11 (- (* X9 S20) (* 63 S21)))
 (= X11 (+ (* 63 S20) (* X10 S21)))
 (= X11 (- (* 63 S20) (* X10 S21)))
 (= X11 (- (* X10 S20) (* 63 S21)))
 (= X11 (+ (* X1 S20) S21))
 (= X11 (- (* X1 S20) S21))
 (= X11 (- S20 (* X1 S21)))
 (= X11 (+ (* X1 S20) (* X1 S21)))
 (= X11 (- (* X1 S20) (* X1 S21)))
 (= X11 (+ (* X1 S20) (* X2 S21)))
 (= X11 (- (* X1 S20) (* X2 S21)))
 (= X11 (- (* X2 S20) (* X1 S21)))
 (= X11 (+ (* X1 S20) (* X3 S21)))
 (= X11 (- (* X1 S20) (* X3 S21)))
 (= X11 (- (* X3 S20) (* X1 S21)))
 (= X11 (+ (* X1 S20) (* X4 S21)))
 (= X11 (- (* X1 S20) (* X4 S21)))
 (= X11 (- (* X4 S20) (* X1 S21)))
 (= X11 (+ (* X1 S20) (* X5 S21)))
 (= X11 (- (* X1 S20) (* X5 S21)))
 (= X11 (- (* X5 S20) (* X1 S21)))
 (= X11 (+ (* X1 S20) (* X6 S21)))
 (= X11 (- (* X1 S20) (* X6 S21)))
 (= X11 (- (* X6 S20) (* X1 S21)))
 (= X11 (+ (* X1 S20) (* X7 S21)))
 (= X11 (- (* X1 S20) (* X7 S21)))
 (= X11 (- (* X7 S20) (* X1 S21)))
 (= X11 (+ (* X1 S20) (* X8 S21)))
 (= X11 (- (* X1 S20) (* X8 S21)))
 (= X11 (- (* X8 S20) (* X1 S21)))
 (= X11 (+ (* X1 S20) (* X9 S21)))
 (= X11 (- (* X1 S20) (* X9 S21)))
 (= X11 (- (* X9 S20) (* X1 S21)))
 (= X11 (+ (* X1 S20) (* X10 S21)))
 (= X11 (- (* X1 S20) (* X10 S21)))
 (= X11 (- (* X10 S20) (* X1 S21)))
 (= X11 (+ (* X2 S20) S21))
 (= X11 (- (* X2 S20) S21))
 (= X11 (- S20 (* X2 S21)))
 (= X11 (+ (* X2 S20) (* X2 S21)))
 (= X11 (- (* X2 S20) (* X2 S21)))
 (= X11 (+ (* X2 S20) (* X3 S21)))
 (= X11 (- (* X2 S20) (* X3 S21)))
 (= X11 (- (* X3 S20) (* X2 S21)))
 (= X11 (+ (* X2 S20) (* X4 S21)))
 (= X11 (- (* X2 S20) (* X4 S21)))
 (= X11 (- (* X4 S20) (* X2 S21)))
 (= X11 (+ (* X2 S20) (* X5 S21)))
 (= X11 (- (* X2 S20) (* X5 S21)))
 (= X11 (- (* X5 S20) (* X2 S21)))
 (= X11 (+ (* X2 S20) (* X6 S21)))
 (= X11 (- (* X2 S20) (* X6 S21)))
 (= X11 (- (* X6 S20) (* X2 S21)))
 (= X11 (+ (* X2 S20) (* X7 S21)))
 (= X11 (- (* X2 S20) (* X7 S21)))
 (= X11 (- (* X7 S20) (* X2 S21)))
 (= X11 (+ (* X2 S20) (* X8 S21)))
 (= X11 (- (* X2 S20) (* X8 S21)))
 (= X11 (- (* X8 S20) (* X2 S21)))
 (= X11 (+ (* X2 S20) (* X9 S21)))
 (= X11 (- (* X2 S20) (* X9 S21)))
 (= X11 (- (* X9 S20) (* X2 S21)))
 (= X11 (+ (* X2 S20) (* X10 S21)))
 (= X11 (- (* X2 S20) (* X10 S21)))
 (= X11 (- (* X10 S20) (* X2 S21)))
 (= X11 (+ (* X3 S20) S21))
 (= X11 (- (* X3 S20) S21))
 (= X11 (- S20 (* X3 S21)))
 (= X11 (+ (* X3 S20) (* X3 S21)))
 (= X11 (- (* X3 S20) (* X3 S21)))
 (= X11 (+ (* X3 S20) (* X4 S21)))
 (= X11 (- (* X3 S20) (* X4 S21)))
 (= X11 (- (* X4 S20) (* X3 S21)))
 (= X11 (+ (* X3 S20) (* X5 S21)))
 (= X11 (- (* X3 S20) (* X5 S21)))
 (= X11 (- (* X5 S20) (* X3 S21)))
 (= X11 (+ (* X3 S20) (* X6 S21)))
 (= X11 (- (* X3 S20) (* X6 S21)))
 (= X11 (- (* X6 S20) (* X3 S21)))
 (= X11 (+ (* X3 S20) (* X7 S21)))
 (= X11 (- (* X3 S20) (* X7 S21)))
 (= X11 (- (* X7 S20) (* X3 S21)))
 (= X11 (+ (* X3 S20) (* X8 S21)))
 (= X11 (- (* X3 S20) (* X8 S21)))
 (= X11 (- (* X8 S20) (* X3 S21)))
 (= X11 (+ (* X3 S20) (* X9 S21)))
 (= X11 (- (* X3 S20) (* X9 S21)))
 (= X11 (- (* X9 S20) (* X3 S21)))
 (= X11 (+ (* X3 S20) (* X10 S21)))
 (= X11 (- (* X3 S20) (* X10 S21)))
 (= X11 (- (* X10 S20) (* X3 S21)))
 (= X11 (+ (* X4 S20) S21))
 (= X11 (- (* X4 S20) S21))
 (= X11 (- S20 (* X4 S21)))
 (= X11 (+ (* X4 S20) (* X4 S21)))
 (= X11 (- (* X4 S20) (* X4 S21)))
 (= X11 (+ (* X4 S20) (* X5 S21)))
 (= X11 (- (* X4 S20) (* X5 S21)))
 (= X11 (- (* X5 S20) (* X4 S21)))
 (= X11 (+ (* X4 S20) (* X6 S21)))
 (= X11 (- (* X4 S20) (* X6 S21)))
 (= X11 (- (* X6 S20) (* X4 S21)))
 (= X11 (+ (* X4 S20) (* X7 S21)))
 (= X11 (- (* X4 S20) (* X7 S21)))
 (= X11 (- (* X7 S20) (* X4 S21)))
 (= X11 (+ (* X4 S20) (* X8 S21)))
 (= X11 (- (* X4 S20) (* X8 S21)))
 (= X11 (- (* X8 S20) (* X4 S21)))
 (= X11 (+ (* X4 S20) (* X9 S21)))
 (= X11 (- (* X4 S20) (* X9 S21)))
 (= X11 (- (* X9 S20) (* X4 S21)))
 (= X11 (+ (* X4 S20) (* X10 S21)))
 (= X11 (- (* X4 S20) (* X10 S21)))
 (= X11 (- (* X10 S20) (* X4 S21)))
 (= X11 (+ (* X5 S20) S21))
 (= X11 (- (* X5 S20) S21))
 (= X11 (- S20 (* X5 S21)))
 (= X11 (+ (* X5 S20) (* X5 S21)))
 (= X11 (- (* X5 S20) (* X5 S21)))
 (= X11 (+ (* X5 S20) (* X6 S21)))
 (= X11 (- (* X5 S20) (* X6 S21)))
 (= X11 (- (* X6 S20) (* X5 S21)))
 (= X11 (+ (* X5 S20) (* X7 S21)))
 (= X11 (- (* X5 S20) (* X7 S21)))
 (= X11 (- (* X7 S20) (* X5 S21)))
 (= X11 (+ (* X5 S20) (* X8 S21)))
 (= X11 (- (* X5 S20) (* X8 S21)))
 (= X11 (- (* X8 S20) (* X5 S21)))
 (= X11 (+ (* X5 S20) (* X9 S21)))
 (= X11 (- (* X5 S20) (* X9 S21)))
 (= X11 (- (* X9 S20) (* X5 S21)))
 (= X11 (+ (* X5 S20) (* X10 S21)))
 (= X11 (- (* X5 S20) (* X10 S21)))
 (= X11 (- (* X10 S20) (* X5 S21)))
 (= X11 (+ (* X6 S20) S21))
 (= X11 (- (* X6 S20) S21))
 (= X11 (- S20 (* X6 S21)))
 (= X11 (+ (* X6 S20) (* X6 S21)))
 (= X11 (- (* X6 S20) (* X6 S21)))
 (= X11 (+ (* X6 S20) (* X7 S21)))
 (= X11 (- (* X6 S20) (* X7 S21)))
 (= X11 (- (* X7 S20) (* X6 S21)))
 (= X11 (+ (* X6 S20) (* X8 S21)))
 (= X11 (- (* X6 S20) (* X8 S21)))
 (= X11 (- (* X8 S20) (* X6 S21)))
 (= X11 (+ (* X6 S20) (* X9 S21)))
 (= X11 (- (* X6 S20) (* X9 S21)))
 (= X11 (- (* X9 S20) (* X6 S21)))
 (= X11 (+ (* X6 S20) (* X10 S21)))
 (= X11 (- (* X6 S20) (* X10 S21)))
 (= X11 (- (* X10 S20) (* X6 S21)))
 (= X11 (+ (* X7 S20) S21))
 (= X11 (- (* X7 S20) S21))
 (= X11 (- S20 (* X7 S21)))
 (= X11 (+ (* X7 S20) (* X7 S21)))
 (= X11 (- (* X7 S20) (* X7 S21)))
 (= X11 (+ (* X7 S20) (* X8 S21)))
 (= X11 (- (* X7 S20) (* X8 S21)))
 (= X11 (- (* X8 S20) (* X7 S21)))
 (= X11 (+ (* X7 S20) (* X9 S21)))
 (= X11 (- (* X7 S20) (* X9 S21)))
 (= X11 (- (* X9 S20) (* X7 S21)))
 (= X11 (+ (* X7 S20) (* X10 S21)))
 (= X11 (- (* X7 S20) (* X10 S21)))
 (= X11 (- (* X10 S20) (* X7 S21)))
 (= X11 (+ (* X8 S20) S21))
 (= X11 (- (* X8 S20) S21))
 (= X11 (- S20 (* X8 S21)))
 (= X11 (+ (* X8 S20) (* X8 S21)))
 (= X11 (- (* X8 S20) (* X8 S21)))
 (= X11 (+ (* X8 S20) (* X9 S21)))
 (= X11 (- (* X8 S20) (* X9 S21)))
 (= X11 (- (* X9 S20) (* X8 S21)))
 (= X11 (+ (* X8 S20) (* X10 S21)))
 (= X11 (- (* X8 S20) (* X10 S21)))
 (= X11 (- (* X10 S20) (* X8 S21)))
 (= X11 (+ (* X9 S20) S21))
 (= X11 (- (* X9 S20) S21))
 (= X11 (- S20 (* X9 S21)))
 (= X11 (+ (* X9 S20) (* X9 S21)))
 (= X11 (- (* X9 S20) (* X9 S21)))
 (= X11 (+ (* X9 S20) (* X10 S21)))
 (= X11 (- (* X9 S20) (* X10 S21)))
 (= X11 (- (* X10 S20) (* X9 S21)))
 (= X11 (+ (* X10 S20) S21))
 (= X11 (- (* X10 S20) S21))
 (= X11 (- S20 (* X10 S21)))
 (= X11 (+ (* X10 S20) (* X10 S21)))
 (= X11 (- (* X10 S20) (* X10 S21)))
))
(assert (and (> X11 0) (< X11 4096) (power2 S20) (power2 S21)))
(assert (or
 (= X2 289)
 (= X3 289)
 (= X4 289)
 (= X5 289)
 (= X6 289)
 (= X7 289)
 (= X8 289)
 (= X9 289)
 (= X10 289)
 (= X11 289)
))
(assert (or
 (= X2 981)
 (= X3 981)
 (= X4 981)
 (= X5 981)
 (= X6 981)
 (= X7 981)
 (= X8 981)
 (= X9 981)
 (= X10 981)
 (= X11 981)
))
(assert (or
 (= X2 119)
 (= X3 119)
 (= X4 119)
 (= X5 119)
 (= X6 119)
 (= X7 119)
 (= X8 119)
 (= X9 119)
 (= X10 119)
 (= X11 119)
))
(assert (or
 (= X2 349)
 (= X3 349)
 (= X4 349)
 (= X5 349)
 (= X6 349)
 (= X7 349)
 (= X8 349)
 (= X9 349)
 (= X10 349)
 (= X11 349)
))
(assert (or
 (= X2 889)
 (= X3 889)
 (= X4 889)
 (= X5 889)
 (= X6 889)
 (= X7 889)
 (= X8 889)
 (= X9 889)
 (= X10 889)
 (= X11 889)
))
(assert (or
 (= X2 1837)
 (= X3 1837)
 (= X4 1837)
 (= X5 1837)
 (= X6 1837)
 (= X7 1837)
 (= X8 1837)
 (= X9 1837)
 (= X10 1837)
 (= X11 1837)
))
(assert (or
 (= X2 645)
 (= X3 645)
 (= X4 645)
 (= X5 645)
 (= X6 645)
 (= X7 645)
 (= X8 645)
 (= X9 645)
 (= X10 645)
 (= X11 645)
))
(assert (or
 (= X2 1175)
 (= X3 1175)
 (= X4 1175)
 (= X5 1175)
 (= X6 1175)
 (= X7 1175)
 (= X8 1175)
 (= X9 1175)
 (= X10 1175)
 (= X11 1175)
))
(assert (or
 (= X2 1947)
 (= X3 1947)
 (= X4 1947)
 (= X5 1947)
 (= X6 1947)
 (= X7 1947)
 (= X8 1947)
 (= X9 1947)
 (= X10 1947)
 (= X11 1947)
))
(check-sat)
(exit)
